db/inputs/2208923851192322135919414283742351231295.smt2
(set-logic QF_FP)
(declare-const x0 (_ FloatingPoint 11 53))
(declare-const x1 (_ FloatingPoint 11 53))
(declare-const x2 (_ FloatingPoint 11 53))
(declare-const x3 (_ FloatingPoint 11 53))
(declare-const x4 (_ FloatingPoint 11 53))
(declare-const x5 (_ FloatingPoint 11 53))
(declare-const x6 (_ FloatingPoint 11 53))
(declare-const x7 (_ FloatingPoint 11 53))
(declare-const x8 (_ FloatingPoint 11 53))
(declare-const x9 (_ FloatingPoint 11 53))
(declare-const x10 (_ FloatingPoint 11 53))
(declare-const x11 (_ FloatingPoint 11 53))
(assert (fp.leq (fp.add RNE x7 x8) (fp.neg x10)))
(assert (fp.eq (fp.mul RNE x1 x6) (fp.add RNE x3 x11)))
(assert (fp.leq (fp.neg x2) (fp.sub RNE x0 x6)))
(assert (fp.geq (fp.div RNE x2 x4) (fp.mul RNE x7 x10)))
(assert (fp.geq (fp.neg x6) (fp.mul RNE x9 x10)))
(assert (fp.leq (fp.mul RNE x6 x3) (fp.mul RNE x8 x11)))
(assert (fp.lt (fp.neg x4) (fp.mul RNE x9 x6)))
(check-sat)
