db/data/2208923851192322135919414283742351231295.z3.out
sat
-------------------
2123.107613797
